DIMENSION: 120
1
16
105
72
40
60
24
111
96
90
54
8
70
116
34
26
4
71
47
55
6
84
36
35
10
104
112
89
48
110
106
99
62
37
67
83
73
57
114
101
102
119
103
38
7
23
9
3
82
80
27
5
63
39
77
53
64
95
12
97
88
109
93
21
2
115
11
51
13
91
68
65
113
118
49
17
42
98
50
46
20
69
43
79
58
33
100
52
25
108
107
18
19
117
85
22
66
31
81
94
86
75
44
41
56
87
14
78
45
74
28
92
15
59
30
32
120
61
29
76
